c 900 z 3990
410	1900
720	1312
41	190
720	1312
450	820
328	1520
450	820
540	984
41	190
90	164
82	380
720	1312
900	1640
540	984
164	760
82	380
720	1312
900	1640
90	164
900	1640
82	380
360	656
450	820
123	570
369	1710
90	164
180	328
164	760
123	570
328	1520
41	190
720	1312
450	820
369	1710
369	1710
720	1312
41	190
180	328
287	1330
630	1148
246	1140
410	1900
123	570
450	820
270	492
82	380
450	820
270	492
287	1330
450	820